55 20 82 90 48 76 56 3 59 22 9 43 50 80 91 93 37 70 92 53 57 95 68 19 38 87 11 30 61 31 78 83 23 79 36 15 10 67 46 47 12 54 42 66 58 17 6 60 77 49 84 18 75 71 98 8 16 45 25 4 88 33 72 21 69 26 64 73 1 96 51 0 85 99 29 13 28 74 7 63 86 81 65 44 52 41 97 24 5 89 94 34 2 62 32 27 14 35 40 39 

